p tw 43 101
5 16
5 11
10 17
10 14
10 16
10 19
14 20
14 41
1 19
1 43
1 18
1 14
1 17
1 3
1 8
6 14
6 12
6 7
6 18
9 42
9 16
9 20
9 12
9 19
9 14
2 17
2 4
2 5
2 11
12 14
12 20
12 19
18 42
8 12
8 13
4 15
4 6
4 13
4 18
4 17
4 8
15 20
15 41
15 16
15 17
15 18
24 25
24 32
24 37
37 39
25 33
25 29
25 28
25 37
25 26
29 40
29 31
21 40
21 22
21 31
21 32
21 39
21 28
21 35
21 43
21 36
28 38
28 39
38 43
32 37
34 38
22 31
22 39
22 36
27 35
27 30
27 39
27 40
39 40
3 16
3 15
35 37
35 41
16 43
31 35
31 42
31 37
11 14
11 18
26 38
26 32
23 33
23 28
23 36
23 42
23 38
23 24
36 38
36 41
30 31
30 34
